
  32    4
  10   10   10   10

   0   0   0   0   0   1 2 
   6   1   0   1   1   1 3 
   8   3   1   4   0   2 18 4 
   1   0   4   3   1   1 5 
   7   3   2   4   0   1 6 
   2   0   9   3   7   1 7 
   2   0   3   5   3   1 8 
   5   2   3   0   5   1 9 
   6   3   6   3   0   1 10 
   3   6   1   2   0   1 11 
   7   4   6   0   4   1 12 
   6   0   6   5   5   2 15 13 
  10   0   4   7   4   1 14 
  10   4   0   4   4   1 16 
   1   6   4   5   0   1 16 
   9   4   5   0   2   1 17 
   9   0   3   4   4   1 19 
   6   3   3   0   8   1 19 
   4   6   6   0   3   1 20 
   7   3   0   4   3   2 31 21 
   3   6   0   6   2   1 22 
   4   0   5   4   7   1 23 
   4   4   1   0   2   1 24 
  10   2   0   4   4   1 25 
   5   7   7   0   1   1 26 
   7   2   0   4   7   1 27 
   4   6   4   0   3   1 28 
  10   6   2   3   0   1 29 
   9   4   5   0   5   1 30 
   1   0   2   6   6   1 32
   8   3   0   3   5   1 32
   0   0   0   0   0   0 
